param set_len = 80;
param target := 18206103085;
set values := 663489342, 977778028, 478536253, 249239659, 187962272, 29853111, 22597876, 496054378, 353837755, 789003228, 350170931, 189286670, 258685006, 84574407, 347531465, 301292674, 197239792, 151904583, 993434599, 540896328, 625202110, 40429712, 97908949, 1003299389, 361647856, 171199348, 1042973928, 1031415299, 412598550, 1044756884, 636856952, 745213767, 552453956, 267317084, 324449897, 639615527, 122893526, 915072068, 712267981, 307264566, 578044748, 53103773, 299183502, 457356340, 277454537, 744219889, 26752226, 924694011, 498121519, 201627096, 870410194, 719812770, 853889061, 324210955, 878529214, 867018262, 51573780, 26035340, 273924478, 250993042, 1065941179, 696927128, 819346278, 1057796277, 3726456, 1060032884, 281170158, 1011126191, 272680089, 180710742, 242961153, 1030381378, 197122681, 171606062, 1068763346, 934840844, 91214299, 224197228, 667037029, 367040752, ;
